Solver command line: []

Read LP format model from file C:\Users\wlhlm\AppData\Local\Temp\tmpf1mur2q_.pyomo.lp
Reading time = 94.77 seconds
objective: 967944 rows, 858479 columns, 78914406 nonzeros
Set parameter MIPGap to value 0.03
Gurobi Optimizer version 12.0.1 build v12.0.1rc0 (win64 - Windows 11.0 (26100.2))

CPU model: Intel(R) Core(TM) Ultra 7 258V, instruction set [SSE2|AVX|AVX2]
Thread count: 8 physical cores, 8 logical processors, using up to 8 threads

Non-default parameters:
MIPGap  0.03

Optimize a model with 967944 rows, 858479 columns and 78914406 nonzeros
Model fingerprint: 0x4adf8988
Model has 8759 quadratic constraints
Variable types: 735840 continuous, 122639 integer (105120 binary)
Coefficient statistics:
  Matrix range     [6e-03, 2e+02]
  QMatrix range    [1e+00, 1e+00]
  Objective range  [1e-02, 3e+02]
  Bounds range     [1e+00, 3e+00]
  RHS range        [8e-05, 1e+04]
Presolve removed 96360 rows and 140160 columns (presolve time = 12s)...
Presolve removed 157680 rows and 140160 columns (presolve time = 31s)...
Presolve removed 582508 rows and 477387 columns (presolve time = 41s)...
Presolve removed 621895 rows and 512429 columns (presolve time = 53s)...
Presolve removed 643758 rows and 529949 columns (presolve time = 63s)...
Presolve removed 661688 rows and 536801 columns (presolve time = 67s)...
Presolve removed 661697 rows and 536810 columns (presolve time = 77s)...
Presolve removed 661697 rows and 539304 columns (presolve time = 83s)...
Presolve removed 664191 rows and 539304 columns (presolve time = 86s)...
Presolve removed 666759 rows and 541872 columns (presolve time = 90s)...
Presolve removed 666759 rows and 541872 columns (presolve time = 99s)...
Presolve removed 666759 rows and 541872 columns (presolve time = 107s)...
Presolve removed 666759 rows and 541872 columns (presolve time = 120s)...
Presolve removed 666759 rows and 541872 columns (presolve time = 127s)...
Presolve removed 675518 rows and 541872 columns (presolve time = 141s)...
Presolve removed 675518 rows and 541872 columns (presolve time = 148s)...
Presolve removed 675518 rows and 541873 columns (presolve time = 150s)...
Presolve removed 675518 rows and 541873 columns (presolve time = 155s)...
Presolve removed 675518 rows and 541873 columns (presolve time = 172s)...
Presolve removed 783759 rows and 650000 columns (presolve time = 175s)...
Presolve removed 771049 rows and 646049 columns
Presolve time: 175.08s
Presolved: 196895 rows, 212430 columns, 620386 nonzeros
Variable types: 149192 continuous, 63238 integer (63238 binary)
Performing another presolve...
Presolve removed 52564 rows and 52565 columns (presolve time = 9s)...
Presolve removed 52564 rows and 52565 columns
Presolve time: 8.81s
Deterministic concurrent LP optimizer: primal and dual simplex
Showing primal log only...


Root simplex log...

Iteration    Objective       Primal Inf.    Dual Inf.      Time
       0    3.2134565e+07   2.786192e+07   6.125567e+13    188s
   45844    2.9084932e+07   1.326982e+04   1.047912e+10    190s
Concurrent spin time: 0.02s

Solved with dual simplex

Root simplex log...

Iteration    Objective       Primal Inf.    Dual Inf.      Time
   69872    1.0883530e+07   0.000000e+00   0.000000e+00    195s
Extra simplex iterations after uncrush: 1

Root relaxation: objective 1.088353e+07, 69872 iterations, 7.68 seconds (6.43 work units)
Total elapsed time = 194.90s (DegenMoves)
Total elapsed time = 195.71s (DegenMoves)

    Nodes    |    Current Node    |     Objective Bounds      |     Work
 Expl Unexpl |  Obj  Depth IntInf | Incumbent    BestBd   Gap | It/Node Time

     0     0 1.0884e+07    0  872          - 1.0884e+07      -     -  199s
H    0     0                    1.154251e+07 1.0884e+07  5.71%     -  200s
H    0     0                    1.154198e+07 1.0884e+07  5.70%     -  202s
     0     0 1.0896e+07    0  980 1.1542e+07 1.0896e+07  5.60%     -  207s
H    0     0                    1.153872e+07 1.0898e+07  5.56%     -  210s
     0     0 1.0898e+07    0  984 1.1539e+07 1.0898e+07  5.56%     -  210s
     0     0 1.0898e+07    0  988 1.1539e+07 1.0898e+07  5.56%     -  211s
     0     0 1.0898e+07    0  989 1.1539e+07 1.0898e+07  5.56%     -  211s
     0     0 1.0902e+07    0  947 1.1539e+07 1.0902e+07  5.52%     -  215s
     0     0 1.0904e+07    0  837 1.1539e+07 1.0904e+07  5.50%     -  217s
     0     0 1.0904e+07    0  812 1.1539e+07 1.0904e+07  5.50%     -  217s
     0     0 1.0904e+07    0  810 1.1539e+07 1.0904e+07  5.50%     -  218s
     0     0 1.0904e+07    0  811 1.1539e+07 1.0904e+07  5.50%     -  218s
     0     0 1.0906e+07    0  710 1.1539e+07 1.0906e+07  5.49%     -  224s
H    0     0                    1.153504e+07 1.0906e+07  5.45%     -  226s
H    0     0                    1.153422e+07 1.0906e+07  5.45%     -  226s
     0     0 1.0906e+07    0  710 1.1534e+07 1.0906e+07  5.45%     -  226s
     0     0 1.0906e+07    0  711 1.1534e+07 1.0906e+07  5.45%     -  226s
H    0     0                    1.153239e+07 1.0906e+07  5.43%     -  227s
     0     0 1.0906e+07    0  718 1.1532e+07 1.0906e+07  5.43%     -  227s
     0     0 1.0906e+07    0  717 1.1532e+07 1.0906e+07  5.43%     -  227s
     0     0 1.0907e+07    0  685 1.1532e+07 1.0907e+07  5.43%     -  232s
H    0     0                    1.150014e+07 1.0907e+07  5.16%     -  239s
     0     0 1.0907e+07    0  681 1.1500e+07 1.0907e+07  5.16%     -  240s
H    0     0                    1.148942e+07 1.0907e+07  5.07%     -  240s
     0     0 1.0907e+07    0  671 1.1489e+07 1.0907e+07  5.07%     -  240s
     0     0 1.0907e+07    0  672 1.1489e+07 1.0907e+07  5.07%     -  241s
     0     0 1.0907e+07    0  685 1.1489e+07 1.0907e+07  5.07%     -  243s
     0     0 1.0907e+07    0  674 1.1489e+07 1.0907e+07  5.07%     -  244s
     0     0 1.0907e+07    0  678 1.1489e+07 1.0907e+07  5.07%     -  244s
     0     0 1.0907e+07    0  668 1.1489e+07 1.0907e+07  5.07%     -  247s
     0     0 1.0907e+07    0  668 1.1489e+07 1.0907e+07  5.07%     -  249s
     0     0 1.0907e+07    0  665 1.1489e+07 1.0907e+07  5.07%     -  249s
     0     0 1.0907e+07    0  653 1.1489e+07 1.0907e+07  5.07%     -  251s
     0     0 1.0907e+07    0  651 1.1489e+07 1.0907e+07  5.07%     -  253s
     0     0 1.0907e+07    0  652 1.1489e+07 1.0907e+07  5.07%     -  254s
     0     0 1.0907e+07    0  652 1.1489e+07 1.0907e+07  5.07%     -  254s
     0     0 1.0907e+07    0  649 1.1489e+07 1.0907e+07  5.07%     -  256s
     0     0 1.0907e+07    0  647 1.1489e+07 1.0907e+07  5.07%     -  257s
     0     0 1.0907e+07    0  650 1.1489e+07 1.0907e+07  5.07%     -  258s
     0     0 1.0908e+07    0  646 1.1489e+07 1.0908e+07  5.06%     -  260s
     0     0 1.0908e+07    0  646 1.1489e+07 1.0908e+07  5.06%     -  261s
     0     0 1.0908e+07    0  642 1.1489e+07 1.0908e+07  5.06%     -  263s
     0     0 1.0908e+07    0  643 1.1489e+07 1.0908e+07  5.06%     -  264s
     0     0 1.0908e+07    0  644 1.1489e+07 1.0908e+07  5.06%     -  264s
     0     0 1.0908e+07    0  650 1.1489e+07 1.0908e+07  5.06%     -  267s
     0     0 1.0908e+07    0  515 1.1489e+07 1.0908e+07  5.06%     -  269s
     0     2 1.0908e+07    0  499 1.1489e+07 1.0908e+07  5.06%     -  275s
    41    50 1.0909e+07    7  595 1.1489e+07 1.0908e+07  5.06%  83.0  281s
H   43    50                    1.148875e+07 1.0908e+07  5.06%  79.2  281s
    89    98 1.0909e+07   10  597 1.1489e+07 1.0908e+07  5.06%  39.6  287s
H   91    98                    1.147545e+07 1.0908e+07  4.95%  38.7  287s
   128   147 1.0909e+07   13  595 1.1475e+07 1.0908e+07  4.95%  28.4  290s
   301   388 1.0909e+07   24  596 1.1475e+07 1.0908e+07  4.95%  13.8  296s
   514   642 1.0909e+07   40  595 1.1475e+07 1.0908e+07  4.95%   9.2  303s
H  597   642                    1.117481e+07 1.0908e+07  2.39%   8.3  304s

Cutting planes:
  Learned: 51
  Gomory: 178
  Cover: 564
  Implied bound: 211
  MIR: 1830
  StrongCG: 1
  Flow cover: 1313
  Flow path: 10
  Network: 2
  RLT: 33
  Relax-and-lift: 357

Explored 641 nodes (98655 simplex iterations) in 304.95 seconds (128.37 work units)
Thread count was 8 (of 8 available processors)

Solution count 10: 1.11748e+07 1.14755e+07 1.14887e+07 ... 1.1542e+07

Optimal solution found (tolerance 3.00e-02)
Best objective 1.117480799542e+07, best bound 1.090771979094e+07, gap 2.3901%

